c description: Random 3-CNF over 15 variables and 45 clauses
c generator: CNFgen (0.9.0)
c copyright: (C) 2012-2020 Massimo Lauria <massimo.lauria@uniroma1.it>
c url: https://massimolauria.net/cnfgen
c
p cnf 15 45
-1 3 -13 0
3 11 -12 0
2 -9 -13 0
5 9 10 0
6 9 -11 0
-6 9 12 0
-5 8 11 0
-3 4 10 0
4 -12 15 0
4 -9 13 0
3 4 -11 0
8 11 14 0
3 -4 13 0
5 -8 -10 0
-8 11 -13 0
1 -4 -6 0
6 -8 -10 0
-3 -9 10 0
-1 11 14 0
1 -4 8 0
-2 8 12 0
5 -7 -13 0
11 -13 14 0
-3 6 13 0
3 -12 -14 0
2 8 -12 0
4 -9 10 0
2 3 -10 0
-4 5 -15 0
5 8 13 0
1 -11 12 0
-1 2 -8 0
-6 -13 -14 0
-1 6 7 0
-2 -5 -7 0
1 14 15 0
-5 11 -14 0
-5 13 15 0
-7 -8 -9 0
3 10 -11 0
1 9 -15 0
3 7 -12 0
4 -11 13 0
5 -8 -11 0
6 8 -13 0